WARNING: for repeatability, setting FPU to use double precision
============================[ Problem Statistics ]=============================
|                                                                             |
|  Number of variables:         75731                                         |
|  Number of clauses:          145888                                         |
|  Parse time:                   0.08 s                                       |
|                                                                             |
============================[ Search Statistics ]==============================
| Conflicts |          ORIGINAL         |          LEARNT          | Progress |
|           |    Vars  Clauses Literals |    Limit  Clauses Lit/Cl |          |
===============================================================================
|       100 |   36708   134392   305792 |    49277      100     30 | 51.528 % |
|       250 |   36708   134392   305792 |    54204      250     39 | 51.528 % |
|       475 |   36708   134392   305792 |    59625      475     65 | 51.528 % |
|       812 |   36708   134392   305792 |    65587      812     76 | 51.528 % |
|      1318 |   36708   134392   305792 |    72146     1318     93 | 51.528 % |
|      2077 |   36708   134392   305792 |    79361     2077     94 | 51.528 % |
|      3216 |   36708   134392   305792 |    87297     3216     98 | 51.528 % |
===============================================================================
restarts              : 25
conflicts             : 4735           (2513 /sec)
decisions             : 26506          (0.00 % random) (14068 /sec)
propagations          : 8532827        (4528820 /sec)
conflict literals     : 493955         (9.91 % deleted)
Memory used           : 29.00 MB
CPU time              : 1.88412 s

SATISFIABLE
